(set-option :produce-models true)
(set-logic QF_UF)
(declare-fun p26() Bool)
(declare-fun p20() Bool)
(declare-fun p1() Bool)
(declare-fun p18() Bool)
(declare-fun p56() Bool)
(declare-fun p60() Bool)
(declare-fun p46() Bool)
(declare-fun p71() Bool)
(declare-fun p42() Bool)
(declare-fun p36() Bool)
(declare-fun p16() Bool)
(declare-fun p61() Bool)
(declare-fun p54() Bool)
(declare-fun p8() Bool)
(declare-fun p31() Bool)
(declare-fun p43() Bool)
(declare-fun p76() Bool)
(declare-fun p23() Bool)
(declare-fun p78() Bool)
(declare-fun p51() Bool)
(declare-fun p44() Bool)
(declare-fun p65() Bool)
(declare-fun p58() Bool)
(declare-fun p73() Bool)
(declare-fun p3() Bool)
(declare-fun p67() Bool)
(declare-fun p50() Bool)
(declare-fun p59() Bool)
(declare-fun p2() Bool)
(declare-fun p12() Bool)
(declare-fun p66() Bool)
(declare-fun p35() Bool)
(declare-fun p21() Bool)
(declare-fun p33() Bool)
(declare-fun p37() Bool)
(declare-fun p29() Bool)
(declare-fun p19() Bool)
(declare-fun p48() Bool)
(declare-fun p17() Bool)
(declare-fun p11() Bool)
(declare-fun p45() Bool)
(declare-fun p79() Bool)
(declare-fun p49() Bool)
(declare-fun p6() Bool)
(declare-fun p69() Bool)
(declare-fun p57() Bool)
(declare-fun p38() Bool)
(declare-fun p25() Bool)
(declare-fun p68() Bool)
(declare-fun p14() Bool)
(declare-fun p24() Bool)
(declare-fun p5() Bool)
(declare-fun p75() Bool)
(declare-fun p7() Bool)
(declare-fun p74() Bool)
(declare-fun p10() Bool)
(declare-fun p72() Bool)
(declare-fun p55() Bool)
(declare-fun p41() Bool)
(declare-fun p13() Bool)
(declare-fun p27() Bool)
(declare-fun p22() Bool)
(declare-fun p32() Bool)
(declare-fun p15() Bool)
(declare-fun p34() Bool)
(declare-fun p70() Bool)
(declare-fun p52() Bool)
(declare-fun p0() Bool)
(declare-fun p62() Bool)
(declare-fun p53() Bool)
(declare-fun p9() Bool)
(declare-fun p30() Bool)
(declare-fun p47() Bool)
(declare-fun p39() Bool)
(declare-fun p63() Bool)
(declare-fun p40() Bool)
(declare-fun p64() Bool)
(declare-fun p4() Bool)
(declare-fun p77() Bool)
(declare-fun p28() Bool)
(assert
(and (or (not p26) (not p20) (not p1)) (or p18 (not p56) p60) (or p46 p71 (not p42)) (or (not p36) p16 (not p61)) (or (not p54) p46 (not p42)) (or p8 p31 (not p1)) (or (not p43) (not p76) (not p23)) (or p78 (not p51) (not p44)) (or p65 p20 (not p58)) (or p73 (not p51) (not p46)) (or (not p3) (not p67) p61) (or p50 (not p59) (not p2)) (or (not p12) (not p67) p66) (or (not p35) (not p2) (not p21)) (or p33 p37 (not p46)) (or p50 p60 p29) (or (not p18) (not p19) (not p18)) (or (not p33) (not p8) p48) (or p17 (not p78) p11) (or (not p45) p79 p3) (or (not p29) (not p49) p6) (or p2 p35 (not p69)) (or (not p57) (not p61) (not p38)) (or (not p2) p25 p21) (or p59 (not p33) (not p68)) (or (not p59) p46 p14) (or p11 (not p33) (not p29)) (or p24 p76 p5) (or p65 p8 p75) (or p66 (not p16) (not p42)) (or p36 (not p7) p74) (or (not p51) p67 (not p46)) (or (not p10) p61 p48) (or p49 p72 (not p76)) (or (not p55) (not p55) (not p16)) (or p60 p54 p54) (or (not p48) p72 (not p41)) (or (not p13) (not p48) (not p55)) (or (not p27) (not p22) p25) (or p5 (not p46) p41) (or (not p32) p59 p36) (or p25 (not p35) p12) (or (not p12) (not p14) p3) (or p16 (not p15) p45) (or p51 p6 p57) (or (not p34) (not p68) (not p57)) (or p70 p49 (not p33)) (or p52 p57 p22) (or (not p15) (not p15) p50) (or (not p0) p20 p69) (or (not p36) (not p20) (not p6)) (or p19 (not p33) (not p29)) (or (not p54) p6 p37) (or (not p62) (not p7) (not p53)) (or (not p31) (not p79) p68) (or (not p66) (not p9) (not p58)) (or p30 p47 (not p15)) (or p48 (not p27) (not p13)) (or (not p26) (not p10) p75) (or (not p13) p2 (not p19)) (or p7 (not p65) (not p42)) (or (not p7) p62 p29) (or p2 p11 (not p53)) (or p78 (not p50) (not p39)) (or p67 p36 p17) (or p75 (not p67) p49) (or (not p27) (not p35) (not p70)) (or (not p34) (not p31) p51) (or p23 (not p47) (not p39)) (or p13 (not p25) (not p60)) (or p46 (not p0) p26) (or (not p48) p79 (not p8)) (or p71 p71 (not p63)) (or (not p14) p0 p9) (or (not p55) p36 p63) (or (not p32) (not p66) p63) (or (not p38) (not p60) (not p13)) (or p24 (not p1) (not p37)) (or p52 (not p12) (not p26)) (or p27 p22 p3) (or (not p68) p7 p51) (or p47 (not p32) p37) (or (not p48) p52 p30) (or (not p12) (not p45) p33) (or (not p26) (not p54) (not p79)) (or p45 p56 p57) (or (not p5) p31 p47) (or (not p59) (not p54) (not p22)) (or (not p25) p48 (not p10)) (or (not p32) p60 p3) (or p40 p44 p61) (or p57 p29 p29) (or p56 (not p12) p35) (or (not p73) (not p13) (not p15)) (or p71 p11 p19) (or (not p21) (not p73) (not p43)) (or p67 (not p35) p16) (or p59 p52 (not p39)) (or (not p22) p55 p8) (or (not p18) p57 p65) (or (not p23) p31 p62) (or (not p68) (not p54) (not p26)) (or p63 (not p5) p70) (or (not p11) p18 (not p37)) (or (not p19) p36 p39) (or (not p36) p39 p1) (or p64 (not p65) (not p62)) (or (not p76) p1 p69) (or p3 p3 p42) (or (not p32) p20 p23) (or p23 (not p1) p53) (or p22 p16 p33) (or (not p61) (not p21) (not p49)) (or (not p27) p57 p60) (or (not p33) (not p75) (not p64)) (or p5 p32 (not p44)) (or (not p22) (not p13) p34) (or (not p73) (not p4) p45) (or (not p72) p8 (not p2)) (or (not p26) p74 p6) (or p22 p63 (not p48)) (or p72 p59 p10) (or p3 p35 p63) (or p72 (not p10) (not p17)) (or (not p47) p21 (not p3)) (or (not p19) (not p25) (not p12)) (or p79 (not p36) (not p34)) (or p21 (not p34) (not p22)) (or (not p52) (not p40) (not p75)) (or p45 (not p72) p41) (or p52 p15 p17) (or (not p72) p63 p59) (or (not p77) (not p36) (not p27)) (or p16 (not p67) (not p79)) (or (not p27) p17 (not p56)) (or p65 (not p35) p11) (or (not p65) p28 p26) (or (not p56) (not p51) (not p34)) (or (not p19) p66 (not p59)) (or p49 (not p7) (not p58)) (or (not p35) (not p53) p12) (or (not p56) p75 p74) (or p59 (not p13) p14) (or (not p14) (not p51) p12) (or p55 (not p56) (not p71)) (or (not p15) p58 (not p37)) (or (not p34) (not p3) (not p38)) (or (not p59) p68 p41) (or (not p5) (not p6) (not p9)) (or p63 (not p5) (not p29)) (or p3 p71 p75) (or p42 (not p50) (not p6)) (or (not p51) p40 p45) (or (not p66) (not p55) (not p47)) (or (not p21) (not p44) (not p13)) (or (not p55) (not p68) (not p59)) (or p24 (not p7) p54) (or p18 (not p77) p16) (or (not p55) p66 p44) (or (not p26) p73 (not p52)) (or (not p20) (not p79) (not p11)) (or (not p45) p74 (not p5)) (or p48 (not p55) (not p45)) (or p48 (not p61) (not p46)) (or (not p53) p25 (not p74)) (or p75 (not p11) (not p53)) (or (not p12) p65 (not p46)) (or p78 (not p13) (not p56)) (or p59 p45 (not p33)) (or (not p68) (not p16) p22) (or p75 p1 (not p50)) (or p75 p47 (not p59)) (or p69 p31 p31) (or p9 p16 p10) (or (not p29) (not p43) (not p48)) (or (not p65) p42 p64) (or (not p44) (not p73) (not p65)) (or (not p54) (not p64) (not p45)) (or (not p0) p10 p15) (or (not p72) p54 p52) (or (not p20) p47 p48) (or (not p74) (not p72) p5) (or (not p2) (not p24) p20) (or p7 (not p41) p50) (or p10 (not p72) (not p78)) (or p44 (not p57) p77) (or (not p74) (not p49) p36) (or p32 p71 (not p53)) (or p64 (not p31) p72) (or (not p18) (not p22) p7) (or (not p41) p32 (not p46)) (or p62 p27 p17) (or (not p61) (not p34) p79) (or p55 (not p22) p20) (or (not p55) p75 p56) (or (not p5) (not p63) p37) (or p74 p27 p24) (or (not p17) (not p28) (not p74)) (or (not p16) p49 (not p34)) (or (not p15) (not p76) (not p6)) (or (not p47) (not p35) p43) (or (not p70) (not p11) (not p26)) (or (not p22) (not p11) (not p64)) (or p22 (not p7) (not p67)) (or (not p3) (not p61) (not p48)) (or p34 p49 (not p4)) (or p56 (not p40) (not p56)) (or (not p27) (not p18) p9) (or p57 p38 (not p12)) (or p46 (not p54) (not p0)) (or p39 (not p74) (not p4)) (or (not p9) (not p19) (not p10)) (or p30 p18 p34) (or p7 p9 p50) (or (not p2) (not p53) p26) (or (not p46) p60 p6) (or (not p57) p26 (not p31)) (or p1 (not p31) (not p65)) (or p48 p63 p15) (or (not p15) p31 p30) (or (not p3) p26 p53) (or p14 (not p1) (not p46)) (or (not p67) (not p11) p19) (or (not p64) p36 p24) (or (not p45) (not p47) p65) (or p8 p9 (not p5)) (or p5 p23 p78) (or (not p37) p65 p44) (or (not p57) p38 (not p47)) (or (not p64) p32 (not p41)) (or (not p67) p44 p33) (or p63 p78 p67) (or (not p39) (not p8) p34) (or p9 (not p31) p57) (or p78 (not p77) (not p15)) (or (not p46) p27 (not p47)) (or p73 (not p74) p57) (or (not p13) p56 (not p50)) (or (not p72) (not p48) (not p18)) (or p54 p55 p2) (or (not p42) (not p42) p68) (or (not p66) (not p25) (not p25)) (or (not p51) (not p1) (not p35)) (or p74 (not p6) (not p38)) (or p64 (not p75) p29) (or (not p2) (not p52) p31) (or (not p14) (not p45) (not p9)) (or (not p58) (not p55) p78) (or p26 (not p74) (not p75)) (or p77 p37 p7) (or p65 p19 p27) (or p18 p40 p31) (or (not p28) p1 (not p10)) (or p51 p40 p31) (or p17 (not p78) (not p73)) (or p57 (not p0) p7) (or p63 (not p1) p29) (or (not p11) (not p62) p18) (or (not p54) (not p7) (not p12)) (or p26 (not p48) (not p48)) (or p61 p54 (not p44)) (or p18 (not p37) (not p31)) (or (not p63) p47 p6) (or (not p42) (not p29) p41) (or (not p17) p26 (not p50)) (or p9 p73 (not p64)) (or (not p31) p1 (not p45)) (or (not p79) p69 p9) (or p68 (not p67) p23) (or p55 (not p18) (not p34)) (or (not p57) p14 (not p42)) (or (not p33) (not p68) p41) (or p27 p49 p20) (or (not p14) p4 p37) (or (not p16) (not p25) (not p7)) (or (not p39) p11 (not p69)) (or (not p22) (not p72) (not p28)) (or p70 p52 p23) (or (not p34) (not p10) (not p45)) (or (not p40) p69 p6) (or p27 p68 p62) (or (not p28) (not p54) (not p75)) (or (not p27) p39 p2) (or p4 (not p31) p6) (or (not p40) (not p35) (not p65)) (or (not p29) (not p72) p56) (or p61 (not p22) (not p74)) (or (not p55) (not p10) p9) (or p30 (not p52) (not p16)) (or (not p59) p2 p71) (or p37 p55 p13) (or p33 (not p70) p77) (or (not p2) p70 (not p60)) (or p51 (not p53) (not p6)) (or p34 p69 p47) (or p77 (not p69) (not p69)) (or (not p23) p20 p24) (or p2 (not p4) (not p11)) (or (not p23) (not p37) p70) (or p68 p50 p32) (or p63 p52 (not p22)) (or (not p43) p59 (not p47)) (or p72 (not p14) p11) (or p21 (not p70) (not p72)) (or (not p72) p39 p24) (or p63 p3 p79) (or (not p41) p16 p28) (or (not p12) (not p78) p34) (or p58 (not p51) (not p43)) (or p16 (not p7) p8) (or p43 (not p41) (not p65)) (or (not p35) p3 (not p25)) (or p6 p69 (not p22)) (or (not p10) (not p78) (not p24)) (or p8 p25 p18) (or p1 (not p30) p47) (or p2 (not p59) p71) (or (not p55) p29 p52) (or (not p21) p62 p51) (or (not p37) (not p15) p41) (or p56 p37 p69) (or p6 (not p32) (not p34)) (or p79 (not p67) (not p14)) (or (not p23) (not p1) p77) (or (not p22) p3 p25) (or p33 p77 p28) (or (not p23) p59 (not p38)) (or (not p68) (not p52) (not p19)) (or p7 p18 p31) (or p64 p61 (not p22)) (or p48 (not p51) p4) (or (not p11) p15 p45) (or (not p55) p73 p67) (or p6 (not p15) p5) (or (not p48) p29 (not p35)) (or p0 p57 p77) (or (not p29) p41 p62))
)
(check-sat)
(get-model)
